
Gurobi 13.0.2 (win64) logging started Thu Jul 23 16:17:08 2026

Set parameter LogFile to value "E:\codes\ExactEBRP\results\gf_gurobi_performance_recovery_round29\runs\stage2__moderate_seed4302__c3_replica__300s\external\native_logs\R.0.0.0.1.0.0.1.0.0_terminal_mip.gurobi.log"
Gurobi Optimizer version 13.0.2 build v13.0.2rc1 (win64 - Windows 10.0 (19045.2))

CPU model: 12th Gen Intel(R) Core(TM) i7-12700KF, instruction set [SSE2|AVX|AVX2]
Thread count: 12 physical cores, 20 logical processors, using up to 1 threads

Non-default parameters:
TimeLimit  212.8607879
MIPGap  0
MIPGapAbs  0
LogToConsole  0
Threads  1

Optimize a model with 11919 rows, 3378 columns and 67378 nonzeros (Min)
Model fingerprint: 0x5250e5d3
Model has 21 linear objective coefficients
Variable types: 1686 continuous, 1692 integer (1492 binary)
Coefficient statistics:
  Matrix range     [3e-03, 2e+04]
  Objective range  [7e-03, 1e+00]
  Bounds range     [3e-03, 1e+02]
  RHS range        [3e-03, 5e+04]

Presolve removed 7108 rows and 1152 columns
Presolve time: 0.33s
Presolved: 4811 rows, 2226 columns, 42350 nonzeros
Variable types: 1089 continuous, 1137 integer (1038 binary)

Root relaxation: objective 4.023220e-03, 1349 iterations, 0.05 seconds (0.12 work units)

    Nodes    |    Current Node    |     Objective Bounds      |     Work
 Expl Unexpl |  Obj  Depth IntInf | Incumbent    BestBd   Gap | It/Node Time

     0     0    0.00402    0  154          -    0.00402      -     -    0s
     0     0    0.00402    0  225          -    0.00402      -     -    0s
     0     0    0.00402    0  225          -    0.00402      -     -    0s
     0     0    0.00402    0  244          -    0.00402      -     -    1s
     0     0    0.00402    0  244          -    0.00402      -     -    1s
     0     0    0.00402    0  224          -    0.00402      -     -    1s
     0     0    0.00402    0  225          -    0.00402      -     -    1s
     0     0    0.00402    0  255          -    0.00402      -     -    1s
     0     0    0.00402    0  223          -    0.00402      -     -    1s
     0     0    0.00402    0  239          -    0.00402      -     -    1s
     0     0    0.00402    0  249          -    0.00402      -     -    2s
     0     0    0.00402    0  231          -    0.00402      -     -    2s
     0     0    0.00402    0  231          -    0.00402      -     -    2s
     0     0    0.00402    0  231          -    0.00402      -     -    2s
     0     2    0.00402    0  222          -    0.00402      -     -    3s

Cutting planes:
  Learned: 5
  Cover: 14
  Implied bound: 95
  Clique: 16
  MIR: 15
  Knapsack: 1
  StrongCG: 1
  Flow cover: 7
  GUB cover: 1
  Zero half: 4
  Network: 5
  RLT: 5
  Relax-and-lift: 43
  BQP: 1

Explored 7 nodes (22503 simplex iterations) in 3.72 seconds (7.49 work units)
Thread count was 1 (of 20 available processors)

Solution count 0

Model is infeasible
Best objective -, best bound -, gap -

User-callback calls 1690, time in user-callback 0.00 sec
